NAME : LC1_6_1
TYPE : PDPTW
DIMENSION : 150
EDGE_WEIGHT_TYPE : EXACT_2D
NODE_COORD_SECTION
1 1 0
2 150 0
3 0 0
4 20 306
5 85 2
6 562 629
7 3 229
8 319 90
9 214 156
10 90 28
11 260 10
12 0 234
13 -20 233
14 0 7
15 163 210
16 8 85
17 974 90
18 105 230
19 90 0
20 111 30
21 0 189
22 -20 1115
23 0 12
24 629 696
25 13 143
26 100 90
27 173 233
28 90 0
29 24 20
30 0 153
31 10 286
32 199 17
33 551 633
34 18 141
35 233 90
36 100 73
37 90 0
38 70 30
39 0 542
40 10 306
41 627 22
42 412 485
43 23 129
44 655 0
45 62 65
46 90 0
47 239 10
48 0 216
49 -10 569
50 0 27
51 722 775
52 28 203
53 107 90
54 251 241
55 90 0
56 110 20
57 0 223
58 10 159
59 160 32
60 837 921
61 33 145
62 527 90
63 121 170
64 90 55
65 141 20
66 0 93
67 20 369
68 146 37
69 701 769
70 38 122
71 542 90
72 119 267
73 90 0
74 113 -20
75 463 0
76 -20 661
77 0 42
78 116 156
79 43 157
80 1260 90
81 73 226
82 90 0
83 109 40
84 0 412
85 -10 874
86 0 47
87 118 175
88 48 31
89 755 90
90 10 147
91 90 351
92 176 20
93 0 163
94 20 135
95 115 52
96 176 255
97 53 119
98 505 90
99 220 74
100 90 591
101 175 30
102 0 34
103 30 649
104 334 57
105 201 249
106 58 61
107 494 90
108 140 143
109 90 0
110 125 30
111 0 222
112 -30 104
113 0 62
114 803 863
115 63 103
116 305 90
117 71 154
118 90 215
119 27 -10
120 487 0
121 -20 797
122 0 67
123 530 604
124 68 108
125 262 90
126 86 230
127 90 0
128 221 -10
129 349 0
130 10 188
131 582 72
132 368 426
133 73 151
134 446 90
135 83 30
136 0 0
137 184 -10
138 158 0
139 10 111
140 393 77
141 569 632
142 78 263
143 626 90
144 259 59
145 90 0
146 26 10
147 0 615
148 -20 1026
149 0 82
150 694 752
PICKUP_AND_DELIVERY_SECTION
1 0 0 0 0 0 0
2 0 0 0 0 1496 0
3 0 0 0 0 0 17
4 0 0 0 0 90 90
5 0 0 0 0 254 254
6 0 0 0 0 42 42
7 0 0 0 0 10 10
8 0 0 0 0 133 0
9 0 0 0 0 672 672
10 0 0 0 0 5 0
11 0 0 0 0 414 414
12 0 0 0 0 29 29
13 0 0 0 0 90 90
14 0 0 0 0 277 277
15 0 0 0 0 0 0
16 0 0 0 0 -10 -10
17 0 0 0 0 0 0
18 0 0 0 0 91 91
19 0 0 0 0 10 10
20 0 0 0 0 155 155
21 0 0 0 0 65 65
22 0 0 0 0 90 90
23 0 0 0 0 233 233
24 0 0 0 0 130 130
25 0 0 0 0 20 20
26 0 0 0 0 338 0
27 0 0 0 0 626 626
28 0 0 0 0 15 15
29 0 0 0 0 537 537
30 0 0 0 0 277 277
31 0 0 0 0 90 90
32 0 0 0 0 105 105
33 0 0 0 0 421 421
34 0 0 0 0 -20 -20
35 0 0 0 0 0 0
36 0 0 0 0 245 245
37 0 0 0 0 20 20
38 0 0 0 0 180 180
39 0 0 0 0 161 161
40 0 0 0 0 0 0
41 0 0 0 0 280 280
42 0 0 0 0 0 0
43 0 0 0 0 20 20
44 0 0 0 0 624 0
45 0 0 0 0 939 939
46 0 0 0 0 25 25
47 0 0 0 0 629 629
48 0 0 0 0 9 9
49 0 0 0 0 90 90
50 0 0 0 0 228 228
51 0 0 0 0 0 0
52 0 0 0 0 20 20
53 0 0 0 0 4 0
54 0 0 0 0 197 197
55 0 0 0 0 30 30
56 0 0 0 0 457 457
57 0 0 0 0 106 106
58 0 0 0 0 90 90
59 0 0 0 0 102 102
60 0 0 0 0 0 0
61 0 0 0 0 10 10
62 0 0 0 0 562 0
63 0 0 0 0 569 569
64 0 0 0 0 35 0
65 0 0 0 0 519 519
66 0 0 0 0 167 167
67 0 0 0 0 90 90
68 0 0 0 0 229 229
69 0 0 0 0 362 362
70 0 0 0 0 -20 -20
71 0 0 0 0 0 0
72 0 0 0 0 635 635
73 0 0 0 0 40 40
74 0 0 0 0 776 776
75 0 0 0 0 257 257
76 0 0 0 0 90 90
77 0 0 0 0 266 266
78 0 0 0 0 0 0
79 0 0 0 0 -20 -20
80 0 0 0 0 0 0
81 0 0 0 0 174 174
82 0 0 0 0 45 45
83 0 0 0 0 294 294
84 0 0 0 0 12 12
85 0 0 0 0 90 90
86 0 0 0 0 126 126
87 0 0 0 0 0 0
88 0 0 0 0 -30 -30
89 0 0 0 0 0 0
90 0 0 0 0 386 386
91 0 0 0 0 50 0
92 0 0 0 0 335 335
93 0 0 0 0 277 277
94 0 0 0 0 90 90
95 0 0 0 0 232 232
96 0 0 0 0 465 465
97 0 0 0 0 20 20
98 0 0 0 0 448 0
99 0 0 0 0 835 835
100 0 0 0 0 55 0
101 0 0 0 0 442 442
102 0 0 0 0 144 144
103 0 0 0 0 90 90
104 0 0 0 0 285 285
105 0 0 0 0 0 0
106 0 0 0 0 40 40
107 0 0 0 0 293 0
108 0 0 0 0 12 12
109 0 0 0 0 60 60
110 0 0 0 0 366 366
111 0 0 0 0 114 114
112 0 0 0 0 90 90
113 0 0 0 0 80 80
114 0 0 0 0 0 0
115 0 0 0 0 20 20
116 0 0 0 0 537 0
117 0 0 0 0 901 901
118 0 0 0 0 65 0
119 0 0 0 0 438 438
120 0 0 0 0 67 67
121 0 0 0 0 90 90
122 0 0 0 0 132 132
123 0 0 0 0 0 0
124 0 0 0 0 10 10
125 0 0 0 0 331 0
126 0 0 0 0 155 155
127 0 0 0 0 70 70
128 0 0 0 0 1059 1059
129 0 0 0 0 116 116
130 0 0 0 0 90 90
131 0 0 0 0 28 28
132 0 0 0 0 414 414
133 0 0 0 0 -10 -10
134 0 0 0 0 0 0
135 0 0 0 0 566 566
136 0 0 0 0 75 75
137 0 0 0 0 243 243
138 0 0 0 0 141 141
139 0 0 0 0 90 90
140 0 0 0 0 156 156
141 0 0 0 0 348 348
142 0 0 0 0 -20 -20
143 0 0 0 0 0 0
144 0 0 0 0 563 563
145 0 0 0 0 80 80
146 0 0 0 0 978 978
147 0 0 0 0 59 59
148 0 0 0 0 90 90
149 0 0 0 0 4 4
150 0 0 0 0 0 0
DEPOT_SECTION
1 
-1
EOF
